(set-logic ALL)
(declare-const name String)
(assert (not (< (str.len name) 0)))
(assert (str.prefixof "/" name))
(assert (not (< (str.len name) 0)))
(assert (str.prefixof "/" name))
(assert (not (= name "")))
(assert (not (< (str.len name) 0)))
(assert (str.prefixof "/" name))
(assert (not (< (str.len name) 0)))
(assert (not (str.prefixof "//" name)))
(assert (not (< (str.len name) 0)))
(assert (not (= (+ 0 (str.indexof name "/" 0)) (- 1))))
(assert (< (+ 0 (str.indexof name "/" 0)) 0))
(check-sat)
(get-value (name))
